Running MiniSat on FULL_RUN_MINISAT\d7627176604d5b86f34d2f5d14d8ee99-worker_40_80_40_0.9.cnf... 
============================[ Problem Statistics ]=============================
|                                                                             |
|  Number of variables:          2508                                         |
|  Number of clauses:           87544                                         |
|  Parse time:                   0.10 s                                       |
|                                                                             |
============================[ Search Statistics ]==============================
| Conflicts |          ORIGINAL         |          LEARNT          | Progress |
|           |    Vars  Clauses Literals |    Limit  Clauses Lit/Cl |          |
===============================================================================
|       100 |    2508    87544   177516 |    32099      100    356 |  0.000 % |
|       250 |    2508    87544   177516 |    35309      250    283 |  0.000 % |
|       475 |    2508    87544   177516 |    38840      475    328 |  0.000 % |
|       812 |    2508    87544   177516 |    42724      812    279 |  0.000 % |
|      1318 |    2508    87544   177516 |    46996     1318    346 |  0.000 % |
|      2077 |    2508    87544   177516 |    51696     2077    311 |  0.000 % |
|      3216 |    2508    87544   177516 |    56866     3216    363 |  0.000 % |
|      4924 |    2508    87544   177516 |    62552     4924    324 |  0.001 % |
|      7486 |    2508    87544   177516 |    68808     7486    291 |  0.000 % |
|     11330 |    2508    87544   177516 |    75688    11330    283 |  0.000 % |
|     17096 |    2508    87544   177516 |    83257    17096    282 |  0.000 % |
|     25745 |    2508    87544   177516 |    91583    25745    296 |  0.000 % |
|     38719 |    2508    87544   177516 |   100741    38719    302 |  0.000 % |
|     58180 |    2508    87544   177516 |   110816    58180    301 |  0.001 % |
ERROR: MiniSat process not found for FULL_RUN_MINISAT\da929c2aefde5e59878ad87c4323e581-pcmax-scheduling-m12-8049-55035-SAT.sanitized.cnf 
Finished MiniSat on FULL_RUN_MINISAT\da929c2aefde5e59878ad87c4323e581-pcmax-scheduling-m12-8049-55035-SAT.sanitized.cnf